1 of 1 MIP starts provided solutions.
MIP start 'm1' defined initial solution with objective 101702.0000.
Tried aggregator 1 time.
MIP Presolve eliminated 0 rows and 1 columns.
Reduced MIP has 30100 rows, 20100 columns, and 2070000 nonzeros.
Reduced MIP has 10000 binaries, 0 generals, 0 SOSs, and 0 indicators.
Presolve time = 1.04 sec. (512.63 ticks)
Probing time = 0.06 sec. (31.71 ticks)
Tried aggregator 1 time.
Reduced MIP has 30100 rows, 20100 columns, and 2070000 nonzeros.
Reduced MIP has 10000 binaries, 0 generals, 0 SOSs, and 0 indicators.
Presolve time = 1.34 sec. (604.01 ticks)
Probing time = 0.05 sec. (31.70 ticks)
Clique table members: 100.
MIP emphasis: balance optimality and feasibility.
MIP search method: dynamic search.
Parallel mode: none, using 1 thread.
Root relaxation solution time = 2.02 sec. (1086.68 ticks)

        Nodes                                         Cuts/
   Node  Left     Objective  IInf  Best Integer    Best Bound    ItCnt     Gap

*     0+    0                       101702.0000  7671567.0000     6726     --- 
      0     0   101731.9827    41   101702.0000   101731.9827     6726    0.03%
      0     0   101721.3197    44   101702.0000      Cuts: 22     6821    0.02%
      0     0   101717.9860    37   101702.0000       Cuts: 6     6846    0.02%

Repeating presolve.
Tried aggregator 2 times.
MIP Presolve eliminated 16437 rows and 16370 columns.
MIP Presolve modified 1412 coefficients.
Aggregator did 2 substitutions.
Reduced MIP has 13661 rows, 3728 columns, and 383567 nonzeros.
Reduced MIP has 1814 binaries, 0 generals, 0 SOSs, and 0 indicators.
Presolve time = 1.06 sec. (441.01 ticks)
Probing fixed 1368 vars, tightened 1368 bounds.
Probing time = 1.27 sec. (1008.98 ticks)
Tried aggregator 1 time.
MIP Presolve eliminated 3062 rows and 2736 columns.
MIP Presolve modified 83 coefficients.
Reduced MIP has 10599 rows, 992 columns, and 100346 nonzeros.
Reduced MIP has 446 binaries, 0 generals, 0 SOSs, and 0 indicators.
Presolve time = 0.13 sec. (73.89 ticks)
Probing time = 0.01 sec. (5.21 ticks)
Tried aggregator 1 time.
Reduced MIP has 10599 rows, 992 columns, and 100346 nonzeros.
Reduced MIP has 446 binaries, 0 generals, 0 SOSs, and 0 indicators.
Presolve time = 0.05 sec. (33.40 ticks)
Represolve time = 2.65 sec. (1627.46 ticks)
Probing time = 0.01 sec. (5.19 ticks)
Clique table members: 82664.
MIP emphasis: balance optimality and feasibility.
MIP search method: dynamic search.
Parallel mode: none, using 1 thread.
Root relaxation solution time = 0.15 sec. (93.04 ticks)

        Nodes                                         Cuts/
   Node  Left     Objective  IInf  Best Integer    Best Bound    ItCnt     Gap

*     0+    0                       101702.0000   101717.9860     8727    0.02%
      0     0   101717.9860    39   101702.0000   101717.9860     8727    0.02%
      0     2   101717.9860    39   101702.0000   101717.7436     8727    0.02%
Elapsed time = 15.19 sec. (8807.36 ticks, tree = 0.00 MB, solutions = 1)
     39    30   101710.8582    26   101702.0000   101716.0769     8873    0.01%
     88    56        cutoff         101702.0000   101712.6599     9052    0.01%

Flow cuts applied:  9
Mixed integer rounding cuts applied:  9
Gomory fractional cuts applied:  6

Root node processing (before b&c):
  Real time             =   15.19 sec. (8807.35 ticks)
Sequential b&c:
  Real time             =    0.97 sec. (600.35 ticks)
                          ------------
Total (root+branch&cut) =   16.15 sec. (9407.70 ticks)
